15
-1 14 25 36 47 58 69 71 82 93 14 25 36 47 58
19 -1 40 51 62 73 84 95 16 27 38 49 50 61 72
12 23 -1 34 45 56 67 78 89 91 22 33 44 55 66
15 26 37 -1 48 59 60 71 82 93 14 25 36 47 58
17 28 39 40 -1 51 62 73 84 95 26 37 48 59 60
19 30 41 52 63 -1 74 85 96 27 38 49 50 61 72
21 32 43 54 65 76 -1 87 98 29 40 51 62 73 84
23 34 45 56 67 78 89 -1 91 32 43 54 65 76 87
10 21 32 43 54 65 76 87 -1 33 44 55 66 77 88
11 22 33 44 55 66 77 88 99 -1 35 46 57 68 79
13 24 35 46 57 68 79 80 91 22 -1 36 47 58 69
15 26 37 48 59 60 71 82 93 14 25 -1 38 49 50
17 28 39 50 61 72 83 94 15 26 37 48 -1 51 62
19 30 41 52 63 74 85 96 27 38 49 50 61 -1 72
21 32 43 54 65 76 87 98 29 40 51 62 73 84 -1
